100
120
83
83
81
81
79
78
78
78
77
77
75
74
74
72
71
71
71
70
69
69
68
68
68
68
67
66
65
63
63
62
62
61
59
57
57
57
56
55
55
55
55
54
54
52
52
52
51
50
50
49
49
48
47
46
46
46
46
45
43
42
41
41
40
36
36
36
36
35
35
34
34
33
32
32
32
31
29
28
27
27
26
26
25
25
23
22
22
21
20
18
17
17
16
16
16
14
13
13
12
12
